# Solution for model GasLib-40
# Objective value = 5.3109205525393151e+01
loadshed[innode_1] 0
loadshed[innode_2] 0
loadshed[innode_3] 0
loadshed[innode_4] 0
loadshed[innode_5] 0
loadshed[innode_6] 0
loadshed[innode_7] 0
loadshed[innode_8] 0
loadshed[source_1] -1.5781905405175456e-01
loadshed[source_2] 1.8896100545021355e-01
loadshed[source_3] 3.0480031065537372e-01
loadshed[sink_1] 3.8267423742674611e-01
loadshed[sink_2] 0
loadshed[sink_3] 0
loadshed[sink_4] 0
loadshed[sink_5] 0
loadshed[sink_6] 0
loadshed[sink_7] 0
loadshed[sink_8] 0
loadshed[sink_9] 0
loadshed[sink_10] 0
loadshed[sink_11] 0
loadshed[sink_12] 1
loadshed[sink_13] 0
loadshed[sink_14] 0
loadshed[sink_15] 0
loadshed[sink_16] 0
loadshed[sink_17] 0
loadshed[sink_18] 0
loadshed[sink_19] 0
loadshed[sink_20] 0
loadshed[sink_21] 1
loadshed[sink_22] 0
loadshed[sink_23] 0
loadshed[sink_24] 8.6476762909410843e-01
loadshed[sink_25] 0
loadshed[sink_26] 0
loadshed[sink_27] 0
loadshed[sink_28] 0
loadshed[sink_29] 0
flow[source_1,sink_3] 1.8303993587144578e+02
flow[innode_1,sink_16] 1.6354166666666970e+01
flow[innode_6,sink_13] 4.5748546671502908e+00
flow[sink_13,sink_14] -1.1779311999516377e+01
flow[sink_14,sink_10] -2.8133478666183045e+01
flow[sink_25,sink_26] 1.1230370734403114e+02
flow[sink_26,sink_9] 0
flow[sink_9,sink_18] -1.6354166666669244e+01
flow[sink_26,sink_4] 9.5949540677364467e+01
flow[sink_4,sink_20] -1.4461185627226016e+01
flow[sink_18,sink_6] -3.2708333333335915e+01
flow[sink_25,innode_8] -1.5033160253810939e+02
flow[sink_6,sink_7] -7.5512515075419316e+01
flow[sink_6,sink_22] 2.6450015075416758e+01
flow[sink_7,sink_24] 2.2116127325234318e+00
flow[sink_22,sink_1] 1.0095848408750090e+01
flow[sink_24,sink_21] 0
flow[sink_21,sink_12] 0
flow[sink_7,sink_5] -9.4078294474609422e+01
flow[sink_5,sink_17] -1.1043246114127609e+02
flow[sink_17,sink_4] -9.4056559637923812e+01
flow[sink_17,sink_8] -3.2730068170018939e+01
flow[sink_3,sink_23] 16.3541666666697
flow[sink_8,sink_20] -4.9084234836685610e+01
flow[sink_25,sink_20] 7.9899587130578283e+01
flow[sink_25,sink_15] -6.2800713270317459e+01
flow[sink_15,sink_29] 0
flow[sink_29,sink_28] 1.6354166666667879e+01
flow[sink_29,sink_2] 95.5090466036508
flow[sink_2,sink_15] 7.9154879936984130e+01
flow[sink_29,innode_7] -1.2821737993698534e+02
flow[innode_4,sink_19] 0
flow[sink_19,innode_3] 3.7671311745048669e+01
flow[innode_4,innode_5] 1.0990431199951678e+02
flow[sink_27,innode_5] -1.0990431199951678e+02
flow[sink_27,sink_19] 9.3550145332850107e+01
flow[sink_10,sink_11] 3.2708333333333641e+01
flow[sink_10,innode_2] -3.9524666921134681e+01
flow[sink_10,innode_3] -3.7671311745048669e+01
flow[innode_6,sink_25] -4.5748546671502908e+00
flow[sink_11,innode_1] 1.6354166666666970e+01
flow[sink_19,innode_2] 3.9524666921134681e+01
flow[source_3,innode_4] 1.0990431199951678e+02
flow[source_2,innode_7] 1.2821737993698534e+02
flow[sink_3,innode_8] 1.5033160253810939e+02
pressure[innode_1] 75.7763499501835
pressure[innode_2] 7.8017093146789790e+01
pressure[innode_3] 7.7933674292743660e+01
pressure[innode_4] 81.01325
pressure[innode_5] 80.9376520189344
pressure[innode_6] 7.4601517547440224e+01
pressure[innode_7] 81.01325
pressure[innode_8] 8.0401417418171718e+01
pressure[source_1] 81.01325
pressure[source_2] 81.01325
pressure[source_3] 81.01325
pressure[sink_1] 1.0132500000000002e+00
pressure[sink_2] 7.5164585438727215e+01
pressure[sink_3] 8.0401417418171718e+01
pressure[sink_4] 54.4927604612928
pressure[sink_5] 4.2671808767580806e+01
pressure[sink_6] 2.5087749515482511e+00
pressure[sink_7] 3.5453817889402361e+00
pressure[sink_8] 5.2133219396530833e+01
pressure[sink_9] 1.0436225722420134e+00
pressure[sink_10] 7.5928051257787047e+01
pressure[sink_11] 75.7763499501835
pressure[sink_12] 1.01325
pressure[sink_13] 7.4576297138189460e+01
pressure[sink_14] 7.4597377220388111e+01
pressure[sink_15] 74.9061622011875
pressure[sink_16] 7.4754700115365821e+01
pressure[sink_17] 5.0898228893849847e+01
pressure[sink_18] 1.6353650660417678e+00
pressure[sink_19] 7.8017093146789790e+01
pressure[sink_20] 5.5553700279749442e+01
pressure[sink_21] 1.01325
pressure[sink_22] 1.6699420970061909e+00
pressure[sink_23] 8.0236699406511931e+01
pressure[sink_24] 1.01325
pressure[sink_25] 7.4601517547440224e+01
pressure[sink_26] 6.6692033391510009e+01
pressure[sink_27] 8.0025649310670872e+01
pressure[sink_28] 7.7288655104077279e+01
pressure[sink_29] 7.7583937377694454e+01
interdiction[source_1,sink_3] 0
interdiction[innode_1,sink_16] 0
interdiction[innode_6,sink_13] 0
interdiction[sink_13,sink_14] 0
interdiction[sink_14,sink_10] 0
interdiction[sink_25,sink_26] 0
interdiction[sink_26,sink_9] 1
interdiction[sink_9,sink_18] 0
interdiction[sink_26,sink_4] 0
interdiction[sink_4,sink_20] 0
interdiction[sink_18,sink_6] 0
interdiction[sink_25,innode_8] 0
interdiction[sink_6,sink_7] 0
interdiction[sink_6,sink_22] 0
interdiction[sink_7,sink_24] 0
interdiction[sink_22,sink_1] 0
interdiction[sink_24,sink_21] 0
interdiction[sink_21,sink_12] 0
interdiction[sink_7,sink_5] 0
interdiction[sink_5,sink_17] 0
interdiction[sink_17,sink_4] 0
interdiction[sink_17,sink_8] 0
interdiction[sink_3,sink_23] 0
interdiction[sink_8,sink_20] 0
interdiction[sink_25,sink_20] 0
interdiction[sink_25,sink_15] 0
interdiction[sink_15,sink_29] 1
interdiction[sink_29,sink_28] 0
interdiction[sink_29,sink_2] 0
interdiction[sink_2,sink_15] 0
interdiction[sink_29,innode_7] 0
interdiction[innode_4,sink_19] 1
interdiction[sink_19,innode_3] 0
interdiction[innode_4,innode_5] 0
interdiction[sink_27,innode_5] 0
interdiction[sink_27,sink_19] 0
interdiction[sink_10,sink_11] 0
interdiction[sink_10,innode_2] 0
interdiction[sink_10,innode_3] 0
interdiction[innode_6,sink_25] 0
interdiction[sink_11,innode_1] 0
interdiction[sink_19,innode_2] 0
interdiction[source_3,innode_4] 0
interdiction[source_2,innode_7] 0
interdiction[sink_3,innode_8] 0
WCcheckFlow[source_1,sink_3] 39
WCcheckFlow[innode_1,sink_16] 1
WCcheckFlow[innode_6,sink_13] 13
WCcheckFlow[sink_13,sink_14] 12
WCcheckFlow[sink_14,sink_10] 11
WCcheckFlow[sink_25,sink_26] 15
WCcheckFlow[sink_26,sink_9] 0
WCcheckFlow[sink_9,sink_18] -1
WCcheckFlow[sink_26,sink_4] 14
WCcheckFlow[sink_4,sink_20] 1
WCcheckFlow[sink_18,sink_6] -2
WCcheckFlow[sink_25,innode_8] -36
WCcheckFlow[sink_6,sink_7] -5
WCcheckFlow[sink_6,sink_22] 2
WCcheckFlow[sink_7,sink_24] 3
WCcheckFlow[sink_22,sink_1] 1
WCcheckFlow[sink_24,sink_21] 2
WCcheckFlow[sink_21,sink_12] 1
WCcheckFlow[sink_7,sink_5] -9
WCcheckFlow[sink_5,sink_17] -10
WCcheckFlow[sink_17,sink_4] -12
WCcheckFlow[sink_17,sink_8] 1
WCcheckFlow[sink_3,sink_23] 1
WCcheckFlow[sink_8,sink_20] 0
WCcheckFlow[sink_25,sink_20] 0
WCcheckFlow[sink_25,sink_15] 6
WCcheckFlow[sink_15,sink_29] 0
WCcheckFlow[sink_29,sink_28] 1
WCcheckFlow[sink_29,sink_2] -4
WCcheckFlow[sink_2,sink_15] -5
WCcheckFlow[sink_29,innode_7] 2
WCcheckFlow[innode_4,sink_19] 0
WCcheckFlow[sink_19,innode_3] -5
WCcheckFlow[innode_4,innode_5] -2
WCcheckFlow[sink_27,innode_5] 3
WCcheckFlow[sink_27,sink_19] -4
WCcheckFlow[sink_10,sink_11] 3
WCcheckFlow[sink_10,innode_2] 1
WCcheckFlow[sink_10,innode_3] 6
WCcheckFlow[innode_6,sink_25] -14
WCcheckFlow[sink_11,innode_1] 2
WCcheckFlow[sink_19,innode_2] 0
WCcheckFlow[source_3,innode_4] -1
WCcheckFlow[source_2,innode_7] -1
WCcheckFlow[sink_3,innode_8] 37
